9
0  12  55  47  33  59  14  78  22
12  0  18  92  10  50  44  27  36
55  18  0  63  77  21  88  12  49
47  92  63  0  41  62  35  14  57
33  10  77  41  0  18  95  29  46
59  50  21  62  18  0  71  33  14
14  44  88  35  95  71  0  68  55
78  27  12  14  29  33  68  0  61
22  36  49  57  46  14  55  61  0